150 7540
1 34 30 63 3 62 149 125 22 104 4 150 115 71 44 45 128 68 119 91 106 13 112 64 136 74 123 31 27 101 116 24 28 6 9 42 37 2 19 99 114 102 108 70 135 137 132 65 83 56 90 46 138 134 54 92 33 105 111 52 126 93 124 146 26 75 18 85 142 97 143 100 5 107 95 82 7 84 89 8 96 35 121 79 16 133 131 32 23 38 67 43 109 51 20 25 141 55 58 50 86 29 81 110 47 120 139 40 53 12 118 127 69 36 61 11 148 130 17 66 60 140 117 57 39 41 129 144 145 147 49 72 80 14 77 122 59 15 78 21 88 94 10 113 48 73 76 87 98 103 
